Version identifier: 20.1.0.0 | 2020-11-10 | 9bedb6d68
CPXPARAM_Threads                                 1
CPXPARAM_TimeLimit                               7200
CPXPARAM_MIP_Tolerances_MIPGap                   0
Generic callback                                 0x60
1 of 1 MIP starts provided solutions.
MIP start 'm1' defined initial solution with objective 1659.5692.
Tried aggregator 1 time.
Reduced MIP has 1 rows, 1001 columns, and 1000 nonzeros.
Reduced MIP has 1000 binaries, 0 generals, 0 SOSs, and 0 indicators.
Presolve time = 0.00 sec. (0.30 ticks)
Probing time = 0.00 sec. (0.11 ticks)
Tried aggregator 1 time.
Reduced MIP has 1 rows, 1001 columns, and 1000 nonzeros.
Reduced MIP has 1000 binaries, 0 generals, 0 SOSs, and 0 indicators.
Presolve time = 0.00 sec. (0.31 ticks)
Probing time = 0.00 sec. (0.11 ticks)
MIP emphasis: balance optimality and feasibility.
MIP search method: dynamic search.
Parallel mode: none, using 1 thread.
Root relaxation solution time = 0.00 sec. (0.21 ticks)

        Nodes                                         Cuts/
   Node  Left     Objective  IInf  Best Integer    Best Bound    ItCnt     Gap

*     0+    0                         1659.5692     4368.0000           163.20%
      0     0     2396.5862     2     1659.5692     4368.0000        0  163.20%
      0     0     2082.7999     4     1659.5692 UserPurge2: 1        7   25.50%
      0     0     2013.3058     5     1659.5692 UserPurge2: 1       18   21.31%
      0     0     1977.5046     7     1659.5692 UserPurge2: 1       41   19.16%
      0     0     1899.9119     7     1659.5692 UserPurge2: 1       54   14.48%
      0     0     1865.4730     9     1659.5692 UserPurge2: 1       90   12.41%
      0     0     1838.7549    10     1659.5692 UserPurge2: 1      111   10.80%
      0     0     1812.5000    10     1659.5692 UserPurge2: 1      131    9.22%
      0     0     1805.8401     9     1659.5692 UserPurge2: 1      144    8.81%
      0     0     1803.8994    11     1659.5692 UserPurge1: 1      148    8.70%
      0     0     1802.6725    12     1659.5692 UserPurge2: 1      172    8.62%
      0     0     1800.7948    13     1659.5692 UserPurge1: 1      177    8.51%
      0     0     1798.0311    12     1659.5692 UserPurge2: 1      212    8.34%
      0     0     1795.7755    14     1659.5692 UserPurge1: 1      230    8.21%
      0     0     1792.2248    14     1659.5692 UserPurge2: 1      251    7.99%
      0     0     1791.5886    16     1659.5692 UserPurge1: 1      257    7.96%
      0     0     1790.7848    17     1659.5692 UserPurge1: 1      260    7.91%
      0     0     1790.4237    18     1659.5692 UserPurge1: 1      261    7.88%
      0     0     1789.6446    18     1659.5692 UserPurge2: 1      279    7.84%
      0     0     1789.1061    19     1659.5692 UserPurge1: 1      283    7.81%
      0     0     1782.5607    15     1659.5692 UserPurge2: 1      324    7.41%
      0     0     1776.3311    17     1659.5692 UserPurge1: 3      339    7.04%
      0     0     1773.9264    16     1659.5692 UserPurge1: 1      347    6.89%
      0     0     1771.2178    16     1659.5692 UserPurge1: 1      353    6.73%
      0     0     1768.0593    14     1659.5692 UserPurge2: 1      385    6.54%
      0     0     1767.2676    16     1659.5692 UserPurge1: 1      398    6.49%
      0     0     1765.7320    16     1659.5692 UserPurge2: 1      435    6.40%
      0     0     1763.1647    16     1659.5692 UserPurge2: 1      467    6.24%
      0     0     1761.8048    17     1659.5692 UserPurge1: 1      477    6.16%
      0     0     1751.3759    12     1659.5692 UserPurge2: 1      538    5.53%
      0     0     1750.4251    12     1659.5692 UserPurge1: 3      547    5.47%
      0     0     1749.8239    14     1659.5692 UserPurge1: 1      553    5.44%
      0     0     1749.0636    15     1659.5692 UserPurge1: 2      557    5.39%
      0     0     1748.9087    16     1659.5692 UserPurge1: 2      563    5.38%
      0     0     1746.9642    16     1659.5692 UserPurge2: 1      580    5.27%
      0     0     1745.8655    17     1659.5692 UserPurge2: 1      598    5.20%
      0     0     1740.7683    12     1659.5692 UserPurge2: 1      636    4.89%
      0     0     1738.3500    14     1659.5692 UserPurge2: 1      659    4.75%
      0     0     1736.2449    14     1659.5692 UserPurge2: 1      682    4.62%
      0     0     1735.5677    16     1659.5692 UserPurge2: 1      701    4.58%
      0     0     1735.1921    18     1659.5692 UserPurge2: 1      713    4.56%
      0     0     1727.3232    14     1659.5692 UserPurge2: 1      762    4.08%
      0     0     1723.6796    15     1659.5692 UserPurge2: 1      780    3.86%
      0     0     1721.7109    11     1659.5692 UserPurge2: 1      806    3.74%
      0     0     1721.1232    13     1659.5692 UserPurge2: 1      821    3.71%
      0     0     1720.7538    15     1659.5692 UserPurge2: 1      833    3.69%
      0     0     1719.7306    14     1659.5692 UserPurge2: 1      858    3.63%
      0     0     1719.1971    15     1659.5692 UserPurge2: 1      867    3.59%
      0     0     1718.6689    15     1659.5692 UserPurge2: 1      885    3.56%
      0     0     1717.7046    16     1659.5692 UserPurge2: 1      906    3.50%
      0     0     1716.3709    15     1659.5692 UserPurge2: 1      928    3.42%
      0     0     1716.0123    16     1659.5692 UserPurge2: 1      946    3.40%
      0     0     1715.4504    15     1659.5692 UserPurge2: 1      976    3.37%
      0     0     1715.0809    16     1659.5692 UserPurge2: 1      984    3.34%
      0     0     1714.3841    15     1659.5692 UserPurge2: 1     1006    3.30%
      0     0     1713.5826    16     1659.5692 UserPurge2: 1     1034    3.25%
      0     0     1712.8741    16     1659.5692 UserPurge2: 1     1051    3.21%
      0     0     1711.5768    16     1659.5692 UserPurge2: 1     1070    3.13%
      0     0     1711.3576    17     1659.5692 UserPurge2: 1     1077    3.12%
      0     0     1710.7910    17     1659.5692 UserPurge2: 1     1096    3.09%
      0     0     1709.9916    16     1659.5692 UserPurge2: 1     1114    3.04%
      0     0     1709.6619    17     1659.5692 UserPurge2: 1     1144    3.02%
      0     0     1709.3465    19     1659.5692 UserPurge2: 1     1157    3.00%
      0     0     1708.8392    20     1659.5692 UserPurge2: 1     1184    2.97%
      0     0     1707.3465    18     1659.5692 UserPurge2: 1     1212    2.88%
      0     0     1706.8752    18     1659.5692 UserPurge2: 1     1227    2.85%
      0     0     1705.9626    18     1659.5692 UserPurge2: 1     1256    2.80%
      0     0     1705.5015    17     1659.5692 UserPurge2: 1     1273    2.77%
      0     0     1705.3110    16     1659.5692 UserPurge2: 1     1289    2.76%
      0     0     1705.1086    17     1659.5692 UserPurge2: 1     1306    2.74%
      0     0     1704.9494    18     1659.5692 UserPurge2: 1     1318    2.73%
      0     0     1704.6823    19     1659.5692 UserPurge2: 1     1340    2.72%
      0     0     1704.4131    20     1659.5692 UserPurge2: 1     1357    2.70%
      0     0     1704.2581    21     1659.5692 UserPurge2: 1     1371    2.69%
      0     0     1704.0274    21     1659.5692 UserPurge2: 1     1405    2.68%
      0     0     1703.8947    22     1659.5692 UserPurge2: 1     1427    2.67%
      0     0     1703.1342    20     1659.5692 UserPurge2: 1     1467    2.63%
      0     0     1702.7359    20     1659.5692 UserPurge2: 1     1488    2.60%
      0     0     1702.1749    21     1659.5692 UserPurge2: 1     1515    2.57%
      0     0     1701.6634    21     1659.5692 UserPurge2: 1     1537    2.54%
      0     0     1701.3467    21     1659.5692 UserPurge2: 1     1558    2.52%
      0     0     1700.2453    20     1659.5692 UserPurge2: 1     1588    2.45%
      0     0     1699.9133    21     1659.5692 UserPurge2: 1     1620    2.43%
      0     0     1699.4667    21     1659.5692 UserPurge2: 1     1640    2.40%
      0     0     1699.1609    21     1659.5692 UserPurge2: 1     1659    2.39%
      0     0     1698.5872    22     1659.5692 UserPurge2: 1     1697    2.35%
      0     0     1697.6781    22     1659.5692 UserPurge2: 1     1719    2.30%
      0     0     1697.4968    23     1659.5692 UserPurge2: 1     1734    2.29%
      0     0     1697.2359    23     1659.5692 UserPurge2: 1     1761    2.27%
      0     0     1696.8182    23     1659.5692 UserPurge2: 1     1783    2.24%
      0     0     1695.9553    24     1659.5692 UserPurge2: 1     1815    2.19%
      0     0     1695.6165    24     1659.5692 UserPurge2: 1     1827    2.17%
      0     0     1694.8539    23     1659.5692 UserPurge2: 1     1851    2.13%
      0     0     1694.4849    23     1659.5692 UserPurge2: 1     1875    2.10%
      0     0     1693.5496    21     1659.5692 UserPurge2: 1     1911    2.05%
      0     0     1693.0025    21     1659.5692 UserPurge2: 1     1937    2.01%
      0     0     1692.3014    22     1659.5692 UserPurge2: 1     1958    1.97%
      0     0     1691.9607    22     1659.5692 UserPurge2: 1     1987    1.95%
      0     0     1691.7961    23     1659.5692 UserPurge2: 1     2000    1.94%
      0     0     1691.4493    24     1659.5692 UserPurge2: 1     2029    1.92%
      0     0     1690.8975    24     1659.5692 UserPurge2: 1     2061    1.89%
      0     0     1690.8064    24     1659.5692 UserPurge2: 1     2074    1.88%
      0     0     1690.2440    23     1659.5692 UserPurge2: 1     2111    1.85%
      0     0     1689.5190    22     1659.5692 UserPurge2: 1     2158    1.80%
      0     0     1689.4132    21     1659.5692 UserPurge2: 1     2171    1.80%
      0     0     1689.0194    22     1659.5692 UserPurge2: 1     2185    1.77%
      0     0     1688.6709    23     1659.5692 UserPurge2: 1     2216    1.75%
      0     0     1688.4196    23     1659.5692 UserPurge2: 1     2237    1.74%
      0     0     1687.7538    22     1659.5692 UserPurge2: 1     2271    1.70%
      0     0     1686.9996    18     1659.5692 UserPurge2: 1     2314    1.65%
      0     0     1686.8814    19     1659.5692 UserPurge2: 1     2330    1.65%
      0     0     1686.7055    20     1659.5692 UserPurge2: 1     2350    1.64%
      0     0     1686.3002    21     1659.5692 UserPurge2: 1     2381    1.61%
      0     0     1685.7953    19     1659.5692 UserPurge2: 1     2408    1.58%
      0     0     1685.4480    19     1659.5692 UserPurge2: 1     2426    1.56%
      0     0     1685.2595    20     1659.5692 UserPurge2: 1     2436    1.55%
      0     0     1685.2299    21     1659.5692 UserPurge2: 1     2447    1.55%
      0     0     1685.1687    22     1659.5692 UserPurge2: 1     2471    1.54%
      0     0     1685.0462    23     1659.5692 UserPurge2: 1     2488    1.54%
      0     0     1685.0310    23     1659.5692 UserPurge2: 1     2500    1.53%
      0     0     1684.9119    24     1659.5692 UserPurge2: 1     2529    1.53%
      0     0     1684.7231    24     1659.5692 UserPurge2: 1     2546    1.52%
      0     0     1684.6124    25     1659.5692 UserPurge2: 1     2559    1.51%
      0     0     1684.4808    23     1659.5692 UserPurge2: 1     2578    1.50%
      0     0     1684.3326    24     1659.5692 UserPurge2: 1     2595    1.49%
      0     0     1684.2415    25     1659.5692 UserPurge2: 1     2614    1.49%
      0     0     1684.1440    25     1659.5692 UserPurge2: 1     2635    1.48%
      0     0     1684.0375    26     1659.5692 UserPurge2: 1     2667    1.47%
      0     0     1683.9057    25     1659.5692 UserPurge2: 1     2683    1.47%
      0     0     1683.3616    22     1659.5692 UserPurge2: 1     2713    1.43%
      0     0     1683.2548    23     1659.5692 UserPurge2: 1     2731    1.43%
      0     0     1683.1358    24     1659.5692 UserPurge2: 1     2747    1.42%
      0     0     1683.0027    25     1659.5692 UserPurge2: 1     2764    1.41%
      0     0     1682.9265    25     1659.5692 UserPurge2: 1     2776    1.41%
      0     0     1682.4501    25     1659.5692 UserPurge2: 1     2808    1.38%
      0     0     1682.2463    25     1659.5692 UserPurge2: 1     2830    1.37%
      0     0     1681.9194    24     1659.5692 UserPurge2: 1     2859    1.35%
      0     0     1681.7146    24     1659.5692 UserPurge2: 1     2883    1.33%
      0     0     1681.4801    24     1659.5692 UserPurge2: 1     2912    1.32%
      0     0     1681.2023    23     1659.5692 UserPurge2: 1     2947    1.30%
      0     0     1680.9796    24     1659.5692 UserPurge2: 1     2972    1.29%
      0     0     1680.7157    24     1659.5692 UserPurge2: 1     2998    1.27%
      0     0     1680.5992    24     1659.5692 UserPurge2: 1     3013    1.27%
      0     0     1680.4659    25     1659.5692 UserPurge2: 1     3041    1.26%
      0     0     1680.3229    25     1659.5692 UserPurge2: 1     3066    1.25%
      0     0     1680.1647    25     1659.5692 UserPurge2: 1     3088    1.24%
      0     0     1679.9328    26     1659.5692 UserPurge2: 1     3122    1.23%
      0     0     1679.7524    26     1659.5692 UserPurge2: 1     3149    1.22%
      0     0     1679.5910    25     1659.5692 UserPurge2: 1     3172    1.21%
      0     0     1679.5125    26     1659.5692 UserPurge2: 1     3188    1.20%
      0     0     1679.1057    24     1659.5692 UserPurge2: 1     3230    1.18%
      0     0     1678.9881    23     1659.5692 UserPurge2: 1     3253    1.17%
      0     0     1678.9287    24     1659.5692 UserPurge2: 1     3266    1.17%
      0     0     1678.7089    25     1659.5692 UserPurge2: 1     3285    1.15%
      0     0     1678.6066    26     1659.5692 UserPurge2: 1     3306    1.15%
      0     0     1678.5317    26     1659.5692 UserPurge2: 1     3327    1.14%
      0     0     1678.3257    25     1659.5692 UserPurge2: 1     3368    1.13%
      0     0     1678.2412    26     1659.5692 UserPurge2: 1     3385    1.13%
      0     0     1678.1031    26     1659.5692 UserPurge2: 1     3429    1.12%
      0     0     1678.0725    26     1659.5692 UserPurge2: 1     3442    1.11%
      0     0     1677.9919    26     1659.5692 UserPurge2: 1     3462    1.11%
      0     0     1677.9232    26     1659.5692 UserPurge2: 1     3479    1.11%
      0     0     1677.8875    27     1659.5692 UserPurge2: 1     3493    1.10%
      0     0     1677.8499    28     1659.5692 UserPurge2: 1     3514    1.10%
      0     0     1677.7242    27     1659.5692 UserPurge2: 1     3547    1.09%
      0     0     1677.5899    28     1659.5692 UserPurge2: 1     3571    1.09%
      0     0     1677.5346    29     1659.5692 UserPurge2: 1     3583    1.08%
      0     0     1677.2331    27     1659.5692 UserPurge2: 1     3616    1.06%
      0     0     1676.9372    27     1659.5692 UserPurge2: 1     3647    1.05%
      0     0     1676.7759    25     1659.5692 UserPurge2: 1     3675    1.04%
      0     0     1676.5501    24     1659.5692 UserPurge2: 1     3705    1.02%
      0     0     1676.4713    25     1659.5692 UserPurge2: 1     3726    1.02%
      0     0     1676.3973    25     1659.5692 UserPurge2: 1     3744    1.01%
      0     0     1676.2518    25     1659.5692 UserPurge2: 1     3780    1.01%
      0     0     1676.1808    26     1659.5692 UserPurge2: 1     3797    1.00%
      0     0     1676.0681    25     1659.5692 UserPurge2: 1     3823    0.99%
      0     0     1676.0097    26     1659.5692 UserPurge2: 1     3842    0.99%
      0     0     1675.9617    26     1659.5692 UserPurge2: 1     3865    0.99%
      0     0     1675.9085    26     1659.5692 UserPurge2: 1     3888    0.98%
      0     0     1675.7869    26     1659.5692 UserPurge2: 1     3914    0.98%
      0     0     1675.7091    26     1659.5692 UserPurge2: 1     3925    0.97%
      0     0     1675.6367    26     1659.5692 UserPurge2: 1     3945    0.97%
      0     0     1675.5667    25     1659.5692 UserPurge2: 1     3964    0.96%
      0     0     1675.5371    26     1659.5692 UserPurge2: 1     3977    0.96%
      0     0     1675.4975    27     1659.5692 UserPurge2: 1     3990    0.96%
      0     0     1675.4286    25     1659.5692 UserPurge2: 1     4012    0.96%
      0     0     1675.4130    26     1659.5692 UserPurge2: 1     4019    0.95%
      0     0     1675.3592    27     1659.5692 UserPurge2: 1     4040    0.95%
      0     0     1675.3194    26     1659.5692 UserPurge2: 1     4057    0.95%
      0     0     1675.2898    27     1659.5692 UserPurge2: 1     4075    0.95%
      0     0     1675.2141    28     1659.5692 UserPurge2: 1     4113    0.94%
      0     0     1675.0915    27     1659.5692 UserPurge2: 1     4138    0.94%
      0     0     1674.9796    28     1659.5692 UserPurge2: 1     4164    0.93%
      0     0     1674.9071    27     1659.5692 UserPurge2: 1     4188    0.92%
      0     0     1674.8174    28     1659.5692 UserPurge2: 1     4211    0.92%
      0     0     1674.7967    29     1659.5692 UserPurge2: 1     4223    0.92%
      0     0     1674.6598    29     1659.5692 UserPurge2: 1     4258    0.91%
      0     0     1674.6178    29     1659.5692 UserPurge2: 1     4286    0.91%
      0     0     1674.5193    29     1659.5692 UserPurge2: 1     4314    0.90%
      0     0     1674.4144    28     1659.5692 UserPurge2: 1     4338    0.89%
      0     0     1674.3421    28     1659.5692 UserPurge2: 1     4371    0.89%
      0     0     1674.2516    28     1659.5692 UserPurge2: 1     4408    0.88%
      0     0     1674.2263    29     1659.5692 UserPurge2: 1     4424    0.88%
      0     0     1674.2039    30     1659.5692 UserPurge2: 1     4437    0.88%
      0     0     1674.1846    31     1659.5692 UserPurge2: 1     4455    0.88%
      0     0     1674.1054    30     1659.5692 UserPurge2: 1     4492    0.88%
      0     0     1673.9929    30     1659.5692 UserPurge2: 1     4527    0.87%
      0     0     1673.9055    30     1659.5692 UserPurge2: 1     4557    0.86%
      0     0     1673.8505    31     1659.5692 UserPurge2: 1     4581    0.86%
      0     0     1673.7815    32     1659.5692 UserPurge2: 1     4621    0.86%
      0     0     1673.7356    32     1659.5692 UserPurge2: 1     4650    0.85%
      0     0     1673.6684    33     1659.5692 UserPurge2: 1     4677    0.85%
      0     0     1673.5918    33     1659.5692 UserPurge2: 1     4711    0.84%
      0     0     1673.5268    34     1659.5692 UserPurge2: 1     4738    0.84%
      0     0     1673.4307    35     1659.5692 UserPurge2: 1     4781    0.84%
      0     0     1673.3779    34     1659.5692 UserPurge2: 1     4801    0.83%
      0     0     1673.1987    32     1659.5692 UserPurge2: 1     4850    0.82%
      0     0     1673.1395    32     1659.5692 UserPurge2: 1     4874    0.82%
      0     0     1673.0850    32     1659.5692 UserPurge2: 1     4895    0.81%
      0     0     1672.9475    31     1659.5692 UserPurge2: 1     4925    0.81%
      0     0     1672.9072    31     1659.5692 UserPurge2: 1     4946    0.80%
      0     0     1672.8777    32     1659.5692 UserPurge2: 1     4964    0.80%
      0     0     1672.8074    32     1659.5692 UserPurge2: 1     4992    0.80%
      0     0     1672.6884    30     1659.5692 UserPurge2: 1     5031    0.79%
      0     0     1672.5005    30     1659.5692 UserPurge2: 1     5073    0.78%
      0     0     1672.4017    30     1659.5692 UserPurge2: 1     5096    0.77%
      0     0     1672.3023    30     1659.5692 UserPurge2: 1     5123    0.77%
      0     0     1671.9992    29     1659.5692 UserPurge2: 1     5164    0.75%
      0     0     1671.7791    28     1659.5692 UserPurge2: 1     5205    0.74%
      0     0     1671.5442    27     1659.5692 UserPurge2: 1     5247    0.72%
      0     0     1671.4531    27     1659.5692 UserPurge2: 1     5271    0.72%
      0     0     1671.3884    26     1659.5692 UserPurge2: 1     5290    0.71%
      0     0     1671.3408    26     1659.5692 UserPurge2: 1     5307    0.71%
      0     0     1671.3115    27     1659.5692 UserPurge2: 1     5325    0.71%
      0     0     1671.2933    28     1659.5692 UserPurge2: 1     5333    0.71%
      0     0     1671.2471    29     1659.5692 UserPurge2: 1     5357    0.70%
      0     0     1671.2382    30     1659.5692 UserPurge2: 1     5370    0.70%
      0     0     1671.2120    31     1659.5692 UserPurge2: 1     5389    0.70%
      0     0     1671.1647    32     1659.5692 UserPurge2: 1     5415    0.70%
      0     0     1671.1054    31     1659.5692 UserPurge2: 1     5442    0.70%
      0     0     1671.0783    32     1659.5692 UserPurge2: 1     5458    0.69%
      0     0     1670.9591    32     1659.5692 UserPurge2: 1     5487    0.69%
      0     0     1670.8614    31     1659.5692 UserPurge2: 1     5515    0.68%
      0     0     1670.7081    30     1659.5692 UserPurge2: 1     5545    0.67%
      0     0     1670.6629    29     1659.5692 UserPurge2: 1     5564    0.67%
      0     0     1670.6073    30     1659.5692 UserPurge2: 1     5584    0.67%
      0     0     1670.5805    31     1659.5692 UserPurge2: 1     5609    0.66%
      0     0     1670.5469    32     1659.5692 UserPurge2: 1     5632    0.66%
      0     0     1670.5183    33     1659.5692 UserPurge2: 1     5657    0.66%
      0     0     1670.4770    33     1659.5692 UserPurge2: 1     5683    0.66%
      0     0     1670.4310    33     1659.5692 UserPurge2: 1     5700    0.65%
      0     0     1670.4032    33     1659.5692 UserPurge2: 1     5721    0.65%
      0     0     1670.3381    33     1659.5692 UserPurge2: 1     5743    0.65%
      0     0     1670.3106    34     1659.5692 UserPurge2: 1     5763    0.65%
      0     0     1670.2899    33     1659.5692 UserPurge2: 1     5784    0.65%
      0     0     1670.2570    33     1659.5692 UserPurge2: 1     5812    0.64%
      0     0     1670.2410    34     1659.5692 UserPurge2: 1     5825    0.64%
      0     0     1670.2122    34     1659.5692 UserPurge2: 1     5851    0.64%
      0     0     1670.1319    34     1659.5692 UserPurge2: 1     5899    0.64%
      0     0     1670.0879    35     1659.5692 UserPurge2: 1     5925    0.63%
      0     0     1670.0716    36     1659.5692 UserPurge2: 1     5939    0.63%
      0     0     1670.0241    36     1659.5692 UserPurge2: 1     5972    0.63%
      0     0     1669.9468    35     1659.5692 UserPurge2: 1     5997    0.63%
      0     0     1669.9137    34     1659.5692 UserPurge2: 1     6019    0.62%
      0     0     1669.8812    35     1659.5692 UserPurge2: 1     6031    0.62%
      0     0     1669.8054    35     1659.5692 UserPurge2: 1     6063    0.62%
      0     0     1669.7863    35     1659.5692 UserPurge2: 1     6079    0.62%
      0     0     1669.7696    34     1659.5692 UserPurge2: 1     6101    0.61%
      0     0     1669.7040    34     1659.5692 UserPurge2: 1     6132    0.61%
      0     0     1669.6706    34     1659.5692 UserPurge2: 1     6157    0.61%
      0     0     1669.6474    35     1659.5692 UserPurge2: 1     6180    0.61%
      0     0     1669.6337    36     1659.5692 UserPurge2: 1     6204    0.61%
      0     0     1669.6066    36     1659.5692 UserPurge2: 1     6235    0.60%
      0     0     1669.5638    34     1659.5692 UserPurge2: 1     6283    0.60%
      0     0     1669.5332    35     1659.5692 UserPurge2: 1     6303    0.60%
      0     0     1669.5012    34     1659.5692 UserPurge2: 1     6332    0.60%
      0     0     1669.4767    35     1659.5692 UserPurge2: 1     6360    0.60%
      0     0     1669.4599    36     1659.5692 UserPurge2: 1     6383    0.60%
      0     0     1669.4260    36     1659.5692 UserPurge2: 1     6412    0.59%
      0     0     1669.3839    37     1659.5692 UserPurge2: 1     6442    0.59%
      0     0     1669.3367    35     1659.5692 UserPurge2: 1     6471    0.59%
      0     0     1669.2992    36     1659.5692 UserPurge2: 1     6491    0.59%
      0     0     1669.2607    37     1659.5692 UserPurge2: 1     6521    0.58%
      0     0     1669.2097    37     1659.5692 UserPurge2: 1     6553    0.58%
      0     0     1669.1985    37     1659.5692 UserPurge2: 1     6573    0.58%
      0     0     1669.1766    38     1659.5692 UserPurge2: 1     6592    0.58%
      0     0     1669.1368    39     1659.5692 UserPurge2: 1     6633    0.58%
      0     0     1669.0934    37     1659.5692 UserPurge2: 1     6670    0.57%
      0     0     1669.0509    37     1659.5692 UserPurge2: 1     6696    0.57%
      0     0     1669.0258    37     1659.5692 UserPurge2: 1     6733    0.57%
      0     0     1669.0080    38     1659.5692 UserPurge2: 1     6756    0.57%
      0     0     1668.9695    37     1659.5692 UserPurge2: 1     6793    0.57%
      0     0     1668.9332    38     1659.5692 UserPurge2: 1     6815    0.56%
      0     0     1668.9067    39     1659.5692 UserPurge2: 1     6840    0.56%
      0     0     1668.8659    39     1659.5692 UserPurge2: 1     6872    0.56%
      0     0     1668.8045    38     1659.5692 UserPurge2: 1     6898    0.56%
      0     0     1668.7470    38     1659.5692 UserPurge2: 1     6933    0.55%
      0     0     1668.5980    34     1659.5692 UserPurge2: 1     6974    0.54%
      0     0     1668.4980    33     1659.5692 UserPurge2: 1     6997    0.54%
      0     0     1668.4674    34     1659.5692 UserPurge2: 1     7018    0.54%
      0     0     1668.4470    34     1659.5692 UserPurge2: 1     7037    0.53%
      0     0     1668.3632    34     1659.5692 UserPurge2: 1     7065    0.53%
      0     0     1668.3061    35     1659.5692 UserPurge2: 1     7090    0.53%
      0     0     1668.2858    36     1659.5692 UserPurge2: 1     7101    0.53%
      0     0     1668.2298    36     1659.5692 UserPurge2: 1     7124    0.52%
      0     0     1668.1575    36     1659.5692 UserPurge2: 1     7150    0.52%
      0     0     1668.1019    35     1659.5692 UserPurge2: 1     7182    0.51%
      0     0     1668.0769    36     1659.5692 UserPurge2: 1     7202    0.51%
      0     0     1668.0464    36     1659.5692 UserPurge2: 1     7224    0.51%
      0     0     1668.0371    37     1659.5692 UserPurge2: 1     7241    0.51%
      0     0     1668.0248    38     1659.5692 UserPurge2: 1     7264    0.51%
      0     0     1668.0000    39     1659.5692 UserPurge2: 1     7298    0.51%
      0     0     1667.9410    38     1659.5692 UserPurge2: 1     7340    0.50%
      0     0     1667.8463    37     1659.5692 UserPurge2: 1     7384    0.50%
      0     0     1667.8179    36     1659.5692 UserPurge2: 1     7397    0.50%
      0     0     1667.7921    37     1659.5692 UserPurge2: 1     7410    0.50%
      0     0     1667.7531    37     1659.5692 UserPurge2: 1     7430    0.49%
      0     0     1667.7105    36     1659.5692 UserPurge2: 1     7464    0.49%
      0     0     1667.6622    36     1659.5692 UserPurge2: 1     7487    0.49%
      0     0     1667.5401    36     1659.5692 UserPurge2: 1     7521    0.48%
      0     0     1667.5181    35     1659.5692 UserPurge2: 1     7534    0.48%
      0     0     1667.4733    35     1659.5692 UserPurge2: 1     7557    0.48%
      0     0     1667.3751    35     1659.5692 UserPurge2: 1     7584    0.47%
      0     0     1667.3377    36     1659.5692 UserPurge2: 1     7612    0.47%
      0     0     1667.3207    37     1659.5692 UserPurge2: 1     7630    0.47%
      0     0     1667.2997    37     1659.5692 UserPurge2: 1     7651    0.47%
      0     0     1667.2558    35     1659.5692 UserPurge2: 1     7676    0.46%
      0     0     1667.2293    36     1659.5692 UserPurge2: 1     7697    0.46%
      0     0     1667.2072    36     1659.5692 UserPurge2: 1     7723    0.46%
      0     0     1667.1873    36     1659.5692 UserPurge2: 1     7746    0.46%
      0     0     1667.1812    36     1659.5692 UserPurge2: 1     7762    0.46%
      0     0     1667.1780    37     1659.5692 UserPurge2: 1     7770    0.46%
      0     0     1667.1659    38     1659.5692 UserPurge2: 1     7795    0.46%
      0     0     1667.1258    37     1659.5692 UserPurge2: 1     7836    0.46%
      0     0     1667.1131    36     1659.5692 UserPurge2: 1     7851    0.45%
      0     0     1667.0984    37     1659.5692 UserPurge2: 1     7877    0.45%
      0     0     1667.0307    35     1659.5692 UserPurge2: 1     7922    0.45%
      0     0     1667.0189    36     1659.5692 UserPurge2: 1     7939    0.45%
      0     0     1666.9759    35     1659.5692 UserPurge2: 1     7968    0.45%
      0     0     1666.9507    36     1659.5692 UserPurge2: 1     7993    0.44%
      0     0     1666.9269    35     1659.5692 UserPurge2: 1     8019    0.44%
      0     0     1666.8663    34     1659.5692 UserPurge2: 1     8048    0.44%
      0     0     1666.8061    34     1659.5692 UserPurge2: 1     8075    0.44%
      0     0     1666.7764    33     1659.5692 UserPurge2: 1     8089    0.43%
      0     0     1666.7366    32     1659.5692 UserPurge2: 1     8110    0.43%
      0     0     1666.7164    33     1659.5692 UserPurge2: 1     8131    0.43%
      0     0     1666.7037    34     1659.5692 UserPurge2: 1     8143    0.43%
      0     0     1666.6708    33     1659.5692 UserPurge2: 1     8170    0.43%
      0     0     1666.6465    34     1659.5692 UserPurge2: 1     8192    0.43%
      0     0     1666.6392    35     1659.5692 UserPurge2: 1     8211    0.43%
      0     0     1666.6315    36     1659.5692 UserPurge2: 1     8227    0.43%
      0     0     1666.6269    36     1659.5692 UserPurge2: 1     8245    0.43%
      0     0     1666.6251    37     1659.5692 UserPurge2: 1     8258    0.43%
      0     0     1666.6219    37     1659.5692 UserPurge2: 1     8282    0.42%
      0     0     1666.6154    37     1659.5692 UserPurge2: 1     8298    0.42%
      0     0     1666.6100    38     1659.5692 UserPurge2: 1     8313    0.42%
      0     0     1666.6042    39     1659.5692 UserPurge2: 1     8332    0.42%
      0     0     1666.5807    38     1659.5692 UserPurge2: 1     8371    0.42%
      0     0     1666.5581    36     1659.5692 UserPurge2: 1     8393    0.42%
      0     0     1666.5433    37     1659.5692 UserPurge2: 1     8405    0.42%
      0     0     1666.5264    36     1659.5692 UserPurge2: 1     8432    0.42%
      0     0     1666.5151    37     1659.5692 UserPurge2: 1     8446    0.42%
      0     0     1666.5018    38     1659.5692 UserPurge2: 1     8473    0.42%
      0     0     1666.4910    37     1659.5692 UserPurge2: 1     8493    0.42%
      0     0     1666.4858    38     1659.5692 UserPurge2: 1     8510    0.42%
      0     0     1666.4810    39     1659.5692 UserPurge2: 1     8527    0.42%
      0     0     1666.4754    39     1659.5692 UserPurge2: 1     8553    0.42%
      0     0     1666.4577    38     1659.5692 UserPurge2: 1     8599    0.42%
      0     0     1666.4422    38     1659.5692 UserPurge2: 1     8620    0.41%
      0     0     1666.4241    38     1659.5692 UserPurge2: 1     8652    0.41%
      0     2     1666.4241    38     1659.5692     1666.4241     8652    0.41%
Elapsed time = 22.75 sec. (4017.54 ticks, tree = 0.01 MB, solutions = 1)
*     1     1      integral     0     1661.3545     1666.4241    29928    0.31%
      1     1     1661.3545     0     1661.3545     1666.4241    29928    0.31%
*     2     0      integral     0     1661.5728     1666.4241    35404    0.29%
      2     0     1661.5728     0     1661.5728     1661.5728    35404    0.00%

User cuts applied:  707

Root node processing (before b&c):
  Real time             =   22.76 sec. (4019.41 ticks)
Sequential b&c:
  Real time             =   32.80 sec. (13307.36 ticks)
                          ------------
Total (root+branch&cut) =   55.56 sec. (17326.78 ticks)
@Parameters: 
is_S_cut                                true
is_add_all_yinF                         true
is_start_value                          true
is_usercut                              true
is_visualization                        false
uc_only_rootnode                        false

data                                    Qi
fn                                      data/Qi/instance_800_1000.csv
mode                                    NewSubmodular
solver                                  cplex

p                                       10
r                                       50

EPS                                     1.0e-06
EPS_vio                                 1.0e-04
beta                                    0.10
gap                                     0.00
nodelimit                               Inf
timelimit                               7200.00


@PrintInfos
ItCnt: 35404
Current gap: 0.00 %
Termination Status: OPTIMAL
Primal Status: FEASIBLE_POINT
Solve Time: 55.56 sec
Objective Value: 1661.572849
Number of Nodes:      3

CutInfo: [phase] num / time (sec) 
ZLP             [phase1]     0 / 0.00 [rLC]     0 / 0.00 [rUC]     0 / 0.00 [sLC]     0 / 0.00 [sUC]     0 / 0.00 
OldSubmodular   [phase1]     0 / 0.00 [rLC]     0 / 0.00 [rUC]     0 / 0.00 [sLC]     0 / 0.00 [sUC]     0 / 0.00 
NewSubmodular   [phase1]     0 / 0.00 [rLC]   102 / 5.00 [rUC]   371 / 12.90 [sLC]     0 / 1.36 [sUC]   669 / 22.61 
PMP             [phase1]     0 / 0.00 [rLC]     2 / 1.23 [rUC]     0 / 0.00 [sLC]     2 / 1.35 [sUC]     0 / 0.00 
Separation Round: [phase1] 0  [rLC] 103  [rUC] 371  [sLC] 2  [sUC] 669
Root Best Bound 1661.572849
Root Best Integer: 1661.572849
Best Bound: 1661.572849
Best Integer: 1661.572849

